Geometry = GenFormat {
64 S
P
1   1   3.9386200000E-01   1.3224436000E+01   6.6708770000E+00
2   1   1.4051117000E+01   1.3224436000E+01   6.6708770000E+00
3   1   9.4986980000E+00   1.3224436000E+01   6.6708770000E+00
4   1   4.9462800000E+00   1.3224436000E+01   6.6708770000E+00
5   1   3.9386200000E-01   3.3061090000E+00   6.6708770000E+00
6   1   1.4051117000E+01   3.3061090000E+00   6.6708770000E+00
7   1   9.4986980000E+00   3.3061090000E+00   6.6708770000E+00
8   1   4.9462800000E+00   3.3061090000E+00   6.6708770000E+00
9   1   3.9386200000E-01   6.6122180000E+00   6.6708770000E+00
10   1   1.4051117000E+01   6.6122180000E+00   6.6708770000E+00
11   1   9.4986980000E+00   6.6122180000E+00   6.6708770000E+00
12   1   4.9462800000E+00   6.6122180000E+00   6.6708770000E+00
13   1   3.9386200000E-01   9.9183270000E+00   6.6708770000E+00
14   1   1.4051117000E+01   9.9183270000E+00   6.6708770000E+00
15   1   9.4986980000E+00   9.9183270000E+00   6.6708770000E+00
16   1   4.9462800000E+00   9.9183270000E+00   6.6708770000E+00
17   1   4.1585570000E+00   1.3224436000E+01   4.5502240000E+00
18   1   1.7815811000E+01   1.3224436000E+01   4.5502240000E+00
19   1   1.3263393000E+01   1.3224436000E+01   4.5502240000E+00
20   1   8.7109750000E+00   1.3224436000E+01   4.5502240000E+00
21   1   4.1585570000E+00   3.3061090000E+00   4.5502240000E+00
22   1   1.7815811000E+01   3.3061090000E+00   4.5502240000E+00
23   1   1.3263393000E+01   3.3061090000E+00   4.5502240000E+00
24   1   8.7109750000E+00   3.3061090000E+00   4.5502240000E+00
25   1   4.1585570000E+00   6.6122180000E+00   4.5502240000E+00
26   1   1.7815811000E+01   6.6122180000E+00   4.5502240000E+00
27   1   1.3263393000E+01   6.6122180000E+00   4.5502240000E+00
28   1   8.7109750000E+00   6.6122180000E+00   4.5502240000E+00
29   1   4.1585570000E+00   9.9183270000E+00   4.5502240000E+00
30   1   1.7815811000E+01   9.9183270000E+00   4.5502240000E+00
31   1   1.3263393000E+01   9.9183270000E+00   4.5502240000E+00
32   1   8.7109750000E+00   9.9183270000E+00   4.5502240000E+00
33   1   2.6700710000E+00   1.6530540000E+00   4.5502240000E+00
34   1   1.6327324000E+01   1.6530540000E+00   4.5502240000E+00
35   1   1.1774906000E+01   1.6530540000E+00   4.5502240000E+00
36   1   7.2224890000E+00   1.6530540000E+00   4.5502240000E+00
37   1   2.6700710000E+00   4.9591640000E+00   4.5502240000E+00
38   1   1.6327324000E+01   4.9591640000E+00   4.5502240000E+00
39   1   1.1774906000E+01   4.9591640000E+00   4.5502240000E+00
40   1   7.2224890000E+00   4.9591640000E+00   4.5502240000E+00
41   1   2.6700710000E+00   8.2652720000E+00   4.5502240000E+00
42   1   1.6327324000E+01   8.2652720000E+00   4.5502240000E+00
43   1   1.1774906000E+01   8.2652720000E+00   4.5502240000E+00
44   1   7.2224890000E+00   8.2652720000E+00   4.5502240000E+00
45   1   2.6700710000E+00   1.1571382000E+01   4.5502240000E+00
46   1   1.6327324000E+01   1.1571382000E+01   4.5502240000E+00
47   1   1.1774906000E+01   1.1571382000E+01   4.5502240000E+00
48   1   7.2224890000E+00   1.1571382000E+01   4.5502240000E+00
49   1   1.8823470000E+00   1.6530540000E+00   6.6708770000E+00
50   1   1.5539602000E+01   1.6530540000E+00   6.6708770000E+00
51   1   1.0987184000E+01   1.6530540000E+00   6.6708770000E+00
52   1   6.4347660000E+00   1.6530540000E+00   6.6708770000E+00
53   1   1.8823470000E+00   4.9591640000E+00   6.6708770000E+00
54   1   1.5539602000E+01   4.9591640000E+00   6.6708770000E+00
55   1   1.0987184000E+01   4.9591640000E+00   6.6708770000E+00
56   1   6.4347660000E+00   4.9591640000E+00   6.6708770000E+00
57   1   1.8823470000E+00   8.2652720000E+00   6.6708770000E+00
58   1   1.5539602000E+01   8.2652720000E+00   6.6708770000E+00
59   1   1.0987184000E+01   8.2652720000E+00   6.6708770000E+00
60   1   6.4347660000E+00   8.2652720000E+00   6.6708770000E+00
61   1   1.8823470000E+00   1.1571382000E+01   6.6708770000E+00
62   1   1.5539602000E+01   1.1571382000E+01   6.6708770000E+00
63   1   1.0987184000E+01   1.1571382000E+01   6.6708770000E+00
64   1   6.4347660000E+00   1.1571382000E+01   6.6708770000E+00
0.00  0.00  0.00
18.209673   0.00        0.00
0.000      13.224436    0.00
0.000       0.00       25.00
}
Driver = VelocityVerlet {
  MovedAtoms = 1:-1
  Steps = 10000
  TimeStep [fs] = 1.0
  KeepStationary = Yes
  OutputPrefix = "md"
  Thermostat = NoseHoover {
    Temperature [Kelvin] = 273.15
    CouplingStrength [cm^-1] = 300
    ChainLength = 3
    Order = 3
    IntegratorSteps = 1
    AdaptFillingTemp = No
  }
  MDRestartFrequency = 1
  Velocities = {}
  ConvergentForcesOnly = Yes
  Plumed = No
  Barostat = {}
  Masses = {}
}
Hamiltonian = DFTB {
  SCC = Yes
  SlaterKosterFiles = Type2FileNames {
    Prefix = "/panasas/scratch/grp-alexeyak/alexey/phosphorene_dftb/3ob-3-1/"
    Separator = "-"
    Suffix = ".skf"
    LowerCaseTypeName = No
  }
  MaxAngularMomentum = {
    P = "p"
  }
  Dispersion = LennardJones {
    Parameters = UFFParameters {}
  }
  Filling = Fermi {
    Temperature [K] = 0.00
    IndependentKFilling = No
  }
  KPointsAndWeights = SupercellFolding {
3  0  0
0  3  0
0  0  1
0.0  0.0  0.0
  }
  Differentiation = FiniteDiff {
    Delta = 1.0000000000000000E-002
  }
  PolynomialRepulsive = {}
  ShellResolvedSCC = No
  OldSKInterpolation = No
  RangeSeparated = None {}
  ReadInitialCharges = No
  InitialCharges = {}
  SCCTolerance = 1.0000000000000001E-005
  EwaldParameter = 0.0000000000000000
  EwaldTolerance = 1.0000000000000001E-009
  HCorrection = None {}
  SpinPolarisation = {}
  ElectricField = {}
  Solver = RelativelyRobust {}
  Charge = 0.0000000000000000
  MaxSCCIterations = 100
  OnSiteCorrection = {}
  Solvation = {}
  Electrostatics = GammaFunctional {}
  ThirdOrder = No
  ThirdOrderFull = No
  ForceEvaluation = "Traditional"
  Mixer = Broyden {
    MixingParameter = 0.20000000000000001
    InverseJacobiWeight = 1.0000000000000000E-002
    MinimalWeight = 1.0000000000000000
    MaximalWeight = 100000.00000000000
    WeightFactor = 1.0000000000000000E-002
  }
}
Options = {
  WriteAutotestTag = Yes
  WriteDetailedOut = Yes
  WriteDetailedXML = No
  WriteResultsTag = No
  RandomSeed = 0
  WriteHS = No
  WriteRealHS = No
  MinimiseMemoryUsage = No
  ShowFoldedCoords = No
  TimingVerbosity = 1
  WriteChargesAsText = No
}
Analysis = {
  ProjectStates = {}
  WriteEigenvectors = No
  WriteBandOut = Yes
  MullikenAnalysis = Yes
  WriteNetCharges = No
  AtomResolvedEnergies = No
  CalculateForces = No
}
ParserOptions = {
  ParserVersion = 9
  WriteHSDInput = Yes
  StopAfterParsing = No
  IgnoreUnprocessedNodes = No
}
Reks = None {}
ExcitedState = {}
